data;

set J := 1 2 3 4 5 6 7 8 9 10 11 12 13 14 15 16 17 18 19 20 21 22 23 24 25 26 27 28 29 30 31 32 33 34 35 36 37 38 39 40 41 42 43 44 45 46 47 48 49 50 51 52 53 54 55 56 57 58 59 60 61 62 63 64 65 66 67 68 69 70 71 72 73 74 75 76 77 78 79 80 81 82 83 84 85 86 87 88 89 90 91 92 93 94 95 96 97 98 99 100 101 102 103 104 105 106 107 108 109 110 111 112 113 114 115 116 117 118 119 120 121 122 123 124 125 126 127 128 129 130 131 132 133 134 135 136 137 138 139 140 141 142 143 144 145 146 147 148 149 150 151 152 153 154 155 156 157 158 159 160 161 162 163 164 165 166 167 168 169 170 171 172 173 174 175 176 177 178 179 180 181 182 183 184 185 186 187 188 189 190 191 192 193 194 195 196 197 198 199 200 201 202 203 204 205 206 207 208 209 210 211 212 213 214 215 216 217 218 219 220 221 222 223 224 225 226 227 228 229 230 231 232 233 234 235 236 237 238 239 240 241 242 243 244 245 246 247 248 249 250;
set I := 1 2 3 4 5 6 7 8 9 10 11 12 13 14 15 16 17 18 19 20 21 22 23 24 25 26 27 28 29 30 31 32 33 34 35 36 37 38 39 40 41 42 43 44 45 46 47 48 49 50 51 52 53 54 55 56 57 58 59 60 61 62 63 64 65 66 67 68 69 70 71 72 73 74 75 76 77 78 79 80 81 82 83 84 85 86 87 88 89 90 91 92 93 94 95 96 97 98 99 100 101 102 103 104 105 106 107 108 109 110 111 112 113 114 115 116 117 118 119 120 121 122 123 124 125 126 127 128 129 130 131 132 133 134 135 136 137 138 139 140 141 142 143 144 145 146 147 148 149 150 151 152 153 154 155 156 157 158 159 160 161 162 163 164 165 166 167 168 169 170 171 172 173 174 175 176 177 178 179 180 181 182 183 184 185 186 187 188 189 190 191 192 193 194 195 196 197 198 199 200 201 202 203;

param p := 
    1 133
    2 122
    3 70
    4 4
    5 105
    6 169
    7 165
    8 166
    9 4
    10 59
    11 65
    12 102
    13 22
    14 79
    15 172
    16 154
    17 75
    18 77
    19 162
    20 158
    21 35
    22 126
    23 73
    24 149
    25 21
    26 74
    27 34
    28 100
    29 67
    30 113
    31 142
    32 149
    33 174
    34 85
    35 57
    36 130
    37 38
    38 143
    39 4
    40 55
    41 161
    42 131
    43 39
    44 10
    45 10
    46 185
    47 172
    48 53
    49 39
    50 23
    51 164
    52 27
    53 137
    54 17
    55 8
    56 17
    57 185
    58 98
    59 73
    60 165
    61 98
    62 75
    63 169
    64 139
    65 50
    66 73
    67 128
    68 97
    69 65
    70 9
    71 44
    72 51
    73 149
    74 35
    75 148
    76 145
    77 151
    78 184
    79 98
    80 113
    81 21
    82 157
    83 124
    84 62
    85 72
    86 101
    87 118
    88 120
    89 16
    90 17
    91 110
    92 94
    93 119
    94 26
    95 150
    96 65
    97 165
    98 55
    99 99
    100 10
    101 63
    102 3
    103 73
    104 2
    105 122
    106 3
    107 160
    108 146
    109 43
    110 6
    111 140
    112 149
    113 5
    114 123
    115 27
    116 136
    117 63
    118 89
    119 167
    120 72
    121 136
    122 181
    123 162
    124 142
    125 145
    126 57
    127 184
    128 185
    129 117
    130 127
    131 107
    132 141
    133 112
    134 31
    135 68
    136 69
    137 59
    138 147
    139 153
    140 126
    141 54
    142 39
    143 14
    144 33
    145 141
    146 170
    147 52
    148 87
    149 92
    150 6
    151 52
    152 131
    153 78
    154 185
    155 130
    156 51
    157 181
    158 100
    159 143
    160 70
    161 102
    162 23
    163 71
    164 6
    165 144
    166 181
    167 169
    168 142
    169 159
    170 36
    171 51
    172 175
    173 40
    174 125
    175 71
    176 98
    177 96
    178 149
    179 108
    180 73
    181 65
    182 47
    183 153
    184 46
    185 176
    186 104
    187 53
    188 84
    189 11
    190 84
    191 105
    192 36
    193 12
    194 68
    195 33
    196 40
    197 145
    198 122
    199 126
    200 54
    201 10
    202 86
    203 100
    204 71
    205 156
    206 145
    207 14
    208 23
    209 159
    210 112
    211 146
    212 140
    213 135
    214 54
    215 142
    216 1
    217 174
    218 77
    219 49
    220 86
    221 8
    222 103
    223 50
    224 49
    225 156
    226 119
    227 137
    228 9
    229 73
    230 43
    231 108
    232 69
    233 13
    234 61
    235 162
    236 114
    237 45
    238 13
    239 41
    240 30
    241 103
    242 153
    243 58
    244 20
    245 133
    246 147
    247 79
    248 148
    249 127
    250 23;

param r := 
    1 152
    2 154
    3 106
    4 30
    5 7
    6 77
    7 130
    8 101
    9 11
    10 154
    11 113
    12 23
    13 152
    14 89
    15 101
    16 55
    17 60
    18 142
    19 133
    20 106
    21 39
    22 77
    23 53
    24 113
    25 136
    26 149
    27 152
    28 70
    29 96
    30 149
    31 133
    32 108
    33 4
    34 16
    35 59
    36 144
    37 2
    38 114
    39 141
    40 26
    41 76
    42 41
    43 28
    44 38
    45 128
    46 140
    47 46
    48 18
    49 85
    50 54
    51 117
    52 121
    53 91
    54 111
    55 76
    56 151
    57 38
    58 66
    59 89
    60 81
    61 64
    62 73
    63 82
    64 95
    65 31
    66 113
    67 151
    68 70
    69 116
    70 104
    71 139
    72 3
    73 13
    74 73
    75 1
    76 82
    77 69
    78 124
    79 104
    80 75
    81 103
    82 121
    83 139
    84 44
    85 104
    86 130
    87 146
    88 75
    89 52
    90 33
    91 96
    92 136
    93 115
    94 5
    95 43
    96 149
    97 22
    98 35
    99 143
    100 45
    101 132
    102 133
    103 98
    104 4
    105 132
    106 38
    107 123
    108 26
    109 47
    110 131
    111 126
    112 87
    113 120
    114 153
    115 37
    116 50
    117 142
    118 2
    119 23
    120 59
    121 43
    122 121
    123 12
    124 139
    125 81
    126 133
    127 31
    128 36
    129 82
    130 145
    131 10
    132 28
    133 130
    134 81
    135 49
    136 120
    137 97
    138 119
    139 147
    140 75
    141 8
    142 131
    143 10
    144 34
    145 85
    146 41
    147 138
    148 108
    149 3
    150 9
    151 85
    152 5
    153 121
    154 1
    155 147
    156 97
    157 40
    158 141
    159 16
    160 32
    161 38
    162 143
    163 91
    164 67
    165 24
    166 39
    167 51
    168 75
    169 129
    170 61
    171 100
    172 134
    173 118
    174 122
    175 132
    176 59
    177 125
    178 48
    179 124
    180 73
    181 139
    182 103
    183 63
    184 35
    185 142
    186 149
    187 61
    188 38
    189 42
    190 74
    191 120
    192 21
    193 72
    194 52
    195 147
    196 15
    197 3
    198 105
    199 106
    200 109
    201 82
    202 39
    203 5
    204 32
    205 60
    206 75
    207 63
    208 86
    209 13
    210 115
    211 138
    212 33
    213 56
    214 126
    215 79
    216 51
    217 22
    218 83
    219 64
    220 100
    221 80
    222 67
    223 151
    224 56
    225 83
    226 15
    227 68
    228 78
    229 43
    230 97
    231 117
    232 31
    233 14
    234 21
    235 88
    236 145
    237 43
    238 132
    239 125
    240 81
    241 96
    242 102
    243 59
    244 48
    245 27
    246 17
    247 131
    248 77
    249 24
    250 137;

param T := 186;
param R := 154;
param M := 1000000;

end;